c t mc
c file mc2022_track1_024.cnf
p cnf 64 336
50 -54 -21 26 23 0
-46 59 -13 -34 12 0
11 52 42 2 -10 0
8 55 62 43 3 0
-14 -20 45 24 -51 0
-8 -55 -62 43 -3 0
-46 59 13 34 12 0
-11 52 -42 2 -10 0
-39 1 -47 -17 63 0
17 63 33 -22 56 0
4 29 36 8 55 0
60 5 -6 -53 49 0
-19 -58 -9 46 59 0
-40 35 48 -39 1 0
34 -12 -57 -50 54 0
-34 12 -57 50 -54 0
-26 -23 -64 -40 -35 0
-27 -32 38 -4 29 0
-46 59 13 -34 -12 0
8 55 -62 -43 3 0
-19 -58 9 -46 59 0
-28 30 25 -14 20 0
-53 49 16 -19 -58 0
-4 -29 -36 -8 55 0
56 7 -41 -11 -52 0
-34 12 57 -50 -54 0
4 29 -36 8 -55 0
43 -3 31 28 30 0
26 23 -64 -40 -35 0
-4 -29 -36 8 -55 0
50 -54 21 26 -23 0
-60 -5 -6 53 -49 0
-27 -32 38 4 -29 0
40 35 -48 -39 1 0
-19 58 9 46 59 0
56 7 41 11 -52 0
-39 -1 47 17 -63 0
-39 1 47 17 63 0
53 49 -16 19 58 0
17 -63 33 -22 -56 0
-18 15 44 -27 32 0
50 54 -21 26 -23 0
43 3 -31 28 30 0
26 -23 64 40 35 0
50 54 21 -26 -23 0
39 -1 47 -17 -63 0
-17 63 33 22 56 0
-2 -10 -37 -18 15 0
-39 1 -47 17 -63 0
50 -54 -21 -26 -23 0
11 -52 -42 2 -10 0
53 49 16 19 -58 0
-11 52 -42 -2 10 0
-17 63 -33 22 -56 0
-14 -20 45 -24 51 0
-46 59 -13 34 -12 0
14 -20 45 24 51 0
53 49 -16 -19 -58 0
43 3 31 -28 30 0
46 -59 13 -34 -12 0
43 3 -31 -28 -30 0
60 -5 -6 53 49 0
-60 5 -6 -53 -49 0
-53 49 -16 -19 58 0
-40 35 -48 39 1 0
-2 10 37 -18 15 0
53 -49 -16 19 -58 0
-11 -52 -42 -2 -10 0
-24 51 61 60 -5 0
17 -63 33 22 56 0
40 -35 -48 39 1 0
-40 -35 48 -39 -1 0
14 -20 -45 -24 51 0
14 20 -45 -24 -51 0
60 5 -6 53 -49 0
-2 10 37 18 -15 0
18 15 44 27 32 0
39 1 47 17 -63 0
2 -10 37 -18 15 0
-26 23 64 -40 -35 0
27 -32 38 -4 -29 0
-26 23 64 40 35 0
-43 3 31 -28 -30 0
-34 12 -57 -50 54 0
-43 -3 31 28 -30 0
19 58 9 -46 59 0
34 12 -57 -50 -54 0
-43 -3 -31 28 30 0
8 -55 -62 43 3 0
-43 -3 31 -28 30 0
40 -35 -48 -39 -1 0
19 -58 -9 46 -59 0
56 7 -41 11 52 0
46 59 -13 -34 -12 0
-4 29 -36 -8 -55 0
-19 -58 -9 -46 -59 0
11 -52 -42 -2 10 0
26 -23 -64 40 -35 0
-27 32 -38 4 -29 0
-2 -10 37 18 15 0
-40 -35 -48 -39 1 0
-17 -63 -33 22 56 0
2 10 -37 -18 15 0
-8 55 -62 43 3 0
-56 7 -41 -11 52 0
18 -15 44 27 -32 0
50 54 21 26 23 0
8 55 62 -43 -3 0
-4 -29 36 8 55 0
4 -29 36 -8 55 0
46 59 13 -34 12 0
27 -32 -38 -4 29 0
11 52 -42 -2 -10 0
-18 -15 44 -27 -32 0
-40 -35 -48 39 -1 0
14 20 45 -24 51 0
34 12 57 50 -54 0
-43 3 -31 -28 30 0
46 -59 -13 -34 12 0
27 -32 38 4 29 0
18 15 44 -27 -32 0
-4 29 36 8 -55 0
-24 -51 61 -60 -5 0
28 30 -25 -14 20 0
-34 -12 -57 -50 -54 0
18 -15 -44 -27 -32 0
-8 55 62 -43 3 0
14 20 45 24 -51 0
8 55 -62 43 -3 0
11 -52 42 -2 -10 0
-19 58 -9 46 -59 0
-28 30 -25 14 20 0
2 10 37 18 15 0
46 59 13 34 -12 0
26 -23 64 -40 -35 0
4 -29 36 8 -55 0
27 32 38 -4 29 0
28 -30 -25 -14 -20 0
-14 20 45 24 51 0
4 -29 -36 8 55 0
-53 -49 16 -19 58 0
-27 -32 -38 -4 -29 0
60 -5 -6 -53 -49 0
4 -29 -36 -8 -55 0
-50 -54 21 -26 -23 0
-19 58 9 -46 -59 0
-8 55 -62 -43 -3 0
56 7 41 -11 52 0
-46 -59 -13 34 12 0
-46 -59 -13 -34 -12 0
-18 15 44 27 -32 0
40 -35 48 39 -1 0
-8 -55 62 43 3 0
28 30 25 -14 -20 0
-50 54 -21 26 23 0
27 32 38 4 -29 0
28 30 -25 14 -20 0
-53 49 16 19 58 0
-27 32 -38 -4 29 0
24 51 -61 60 -5 0
-18 15 -44 27 32 0
-2 -10 37 -18 -15 0
-43 -3 -31 -28 -30 0
-26 -23 64 40 -35 0
17 -63 -33 22 -56 0
-4 29 -36 8 55 0
-60 -5 6 53 49 0
24 51 61 -60 -5 0
-60 -5 -6 -53 49 0
26 23 -64 40 35 0
40 -35 48 -39 1 0
-56 -7 -41 11 52 0
-53 -49 -16 19 58 0
-50 54 21 -26 23 0
19 58 9 46 -59 0
19 -58 9 -46 -59 0
-8 -55 -62 -43 3 0
-60 5 6 53 -49 0
-26 23 -64 40 -35 0
40 35 -48 39 -1 0
-56 -7 -41 -11 -52 0
34 12 57 -50 54 0
50 -54 21 -26 23 0
-53 49 -16 19 -58 0
27 -32 -38 4 -29 0
-34 -12 57 -50 54 0
-56 7 41 11 52 0
-56 7 41 -11 -52 0
43 3 31 28 -30 0
-14 -20 -45 -24 -51 0
-24 51 -61 -60 -5 0
-39 -1 -47 17 63 0
2 10 -37 18 -15 0
-19 -58 9 46 -59 0
19 -58 -9 -46 59 0
-14 -20 -45 24 51 0
-19 58 -9 -46 59 0
-60 5 6 -53 49 0
18 15 -44 27 -32 0
-24 -51 -61 -60 5 0
34 -12 57 50 54 0
11 52 -42 2 10 0
-46 -59 13 -34 12 0
14 20 -45 24 51 0
-8 55 62 43 -3 0
-11 52 42 2 10 0
-50 54 21 26 -23 0
17 63 33 22 -56 0
-40 35 48 39 -1 0
-60 5 -6 53 49 0
2 10 37 -18 -15 0
24 -51 -61 60 5 0
24 51 -61 -60 5 0
26 23 64 -40 35 0
-11 -52 42 -2 10 0
-11 52 42 -2 -10 0
-18 -15 -44 27 -32 0
-27 32 38 4 29 0
2 -10 37 18 -15 0
24 -51 61 -60 5 0
-50 -54 -21 -26 23 0
26 23 64 40 -35 0
17 -63 -33 -22 56 0
17 63 -33 22 56 0
-17 63 33 -22 -56 0
-34 -12 -57 50 54 0
-14 20 45 -24 -51 0
28 -30 25 14 -20 0
28 -30 -25 14 20 0
34 12 -57 50 54 0
60 -5 6 53 -49 0
-28 -30 25 14 20 0
46 -59 13 34 12 0
4 29 36 -8 -55 0
24 51 61 60 5 0
8 -55 -62 -43 -3 0
-8 -55 62 -43 -3 0
18 15 -44 -27 32 0
56 -7 -41 -11 52 0
8 -55 62 43 -3 0
26 -23 -64 -40 35 0
-50 -54 -21 26 -23 0
-50 -54 21 26 23 0
-39 1 47 -17 -63 0
14 -20 45 -24 -51 0
-50 54 -21 -26 -23 0
-56 -7 41 -11 52 0
-11 -52 42 2 -10 0
-39 -1 -47 -17 -63 0
-17 -63 33 22 -56 0
19 58 -9 46 59 0
-53 -49 -16 -19 -58 0
-26 -23 -64 40 35 0
40 35 48 39 1 0
60 -5 6 -53 49 0
2 -10 -37 18 15 0
-46 -59 13 34 -12 0
-26 23 -64 -40 35 0
56 -7 41 -11 -52 0
28 30 25 14 20 0
53 -49 16 19 58 0
11 -52 42 2 10 0
46 -59 -13 34 -12 0
-14 20 -45 24 -51 0
-60 -5 6 -53 -49 0
-24 51 -61 60 5 0
-11 -52 -42 2 10 0
-24 51 61 -60 5 0
14 -20 -45 24 -51 0
-2 10 -37 18 15 0
53 49 16 -19 58 0
2 -10 -37 -18 -15 0
19 -58 9 46 59 0
-28 -30 -25 14 -20 0
-34 -12 57 50 -54 0
-14 20 -45 -24 51 0
-24 -51 61 60 5 0
-17 63 -33 -22 56 0
-34 12 57 50 54 0
-4 -29 36 -8 -55 0
40 35 48 -39 -1 0
-56 -7 41 11 -52 0
60 5 6 53 49 0
39 1 -47 17 63 0
53 -49 -16 -19 58 0
-27 32 38 -4 -29 0
24 -51 -61 -60 -5 0
-43 3 31 28 30 0
-40 35 -48 -39 -1 0
56 -7 -41 11 -52 0
18 -15 -44 27 32 0
53 -49 16 -19 -58 0
27 32 -38 -4 -29 0
-2 10 -37 -18 -15 0
18 -15 44 -27 32 0
19 58 -9 -46 -59 0
24 -51 61 60 -5 0
-26 -23 64 -40 35 0
-18 15 -44 -27 -32 0
-28 30 -25 -14 -20 0
50 54 -21 -26 23 0
60 5 6 -53 -49 0
27 32 -38 4 29 0
-18 -15 -44 -27 32 0
-24 -51 -61 60 -5 0
39 1 -47 -17 -63 0
-39 -1 47 -17 63 0
-18 -15 44 27 32 0
-27 -32 -38 4 29 0
34 -12 57 -50 -54 0
-2 -10 -37 18 -15 0
39 1 47 -17 63 0
46 59 -13 34 12 0
-53 -49 16 19 -58 0
11 52 42 -2 10 0
56 -7 41 11 52 0
39 -1 -47 17 -63 0
43 -3 31 -28 -30 0
-43 3 -31 28 -30 0
43 -3 -31 28 -30 0
-56 7 -41 11 -52 0
4 29 -36 -8 55 0
-28 -30 -25 -14 20 0
8 -55 62 -43 3 0
-17 -63 -33 -22 -56 0
-40 -35 48 39 1 0
-4 29 36 -8 55 0
34 -12 -57 50 -54 0
43 -3 -31 -28 30 0
-17 -63 33 -22 56 0
-28 -30 25 -14 -20 0
-28 30 25 14 -20 0
39 -1 47 17 63 0
17 63 -33 -22 -56 0
39 -1 -47 -17 63 0
28 -30 25 -14 20 0
